letting n =  10
letting blocks =  [[1, 2], [1, 3], [1, 5], [1, 9], [2, 1], [3, 1], [3, 6], [3, 9], [4, 2], [4, 4], [4, 7], [5, 3], [5, 4], [5, 7], [5, 9], [6, 1], [6, 2], [6, 3], [8, 4], [9, 2], [9, 3], [9, 4], [9, 5], [10, 1], [10, 7], [10, 8], [10, 9], [10, 10]]
